VALOR = 250;
MAXV = 300;
MAXN= 250;
MCAP = 1000;
CA = 4;
MinD = 3;
MaxD = 8;
MinB = 100000;
preciosVeg = [|110,120|130,130|110,140|120,110|100,120|90,100|];
preciosNoVeg = [|130,110,115|110,90,115|130,100,95|120,120,125|150,110,105|140,80,135|];

durezaVeg = [9,6];
durezaNoVeg = [2,4,5];

cantidadVeg = [500,600];
cantidadNoVeg = [200,300,500];
K =2;
T = 200;

Z = 200;

